data/MCDM/NO_CORR/GEN_FROM_60/10_ITEMS_1000_GEN/K5011W07.KNP.mps
NAME          BLANK   
ROWS
 N  OBJROW
 L  R0000000
COLUMNS
    C0000000  OBJROW     -627.         R0000000  610.        
    C0000001  OBJROW     -496.         R0000000  673.        
    C0000002  OBJROW     -985.         R0000000  896.        
    C0000003  OBJROW     -532.         R0000000  672.        
    C0000004  OBJROW     -386.         R0000000  416.        
    C0000005  OBJROW     -361.         R0000000  226.        
    C0000006  OBJROW     -481.         R0000000  875.        
    C0000007  OBJROW     -172.         R0000000  797.        
    C0000008  OBJROW     -890.         R0000000  24.         
    C0000009  OBJROW     -320.         R0000000  424.        
    C0000010  OBJROW     -218.         R0000000  635.        
RHS
    RHS       R0000000  16386.      
BOUNDS
 BV BOUND     C0000000  1.          
 BV BOUND     C0000001  1.          
 BV BOUND     C0000002  1.          
 BV BOUND     C0000003  1.          
 BV BOUND     C0000004  1.          
 BV BOUND     C0000005  1.          
 BV BOUND     C0000006  1.          
 BV BOUND     C0000007  1.          
 BV BOUND     C0000008  1.          
 BV BOUND     C0000009  1.          
 BV BOUND     C0000010  1.          
ENDATA
