data/MCDM/NO_CORR/GEN_FROM_60/10_ITEMS_1000_GEN/K5011W07.KNP.txt
N 11
M 12
LC 11
LC 12
LC 13
LC 14
LC 15
LC 16
LC 17
LC 18
LC 19
LC 20
LC 21
LR 1
LR 2
LR 3
LR 4
LR 5
LR 6
LR 7
LR 8
LR 9
LR 10
LR 11
LR 12
LO -627
LO -496
LO -985
LO -532
LO -386
LO -361
LO -481
LO -172
LO -890
LO -320
LO -218
OS 1
IC 64
IC 49
IC 289
IC 718
IC 558
IC 443
IC 967
IC 609
IC 983
IC 405
IC 814
IB 2950
